Optimal - objective value 24714.00000000
      5 x_0_5                    1                       0
     13 x_1_6                    1                       0
     16 x_2_2                    1                       0
     25 x_3_4                    1                       0
     28 x_4_0                    1                       0
     38 x_5_3                    1                       0
     43 x_6_1                    1                       0
    234 y_0_5_1_6                1                     810
    237 y_0_5_2_2                1                    2294
    245 y_0_5_3_4                1                     588
    247 y_0_5_4_0                1                     540
    256 y_0_5_5_3                1                     918
    260 y_0_5_6_1                1                     880
    483 y_1_6_2_2                1                    1862
    491 y_1_6_3_4                1                    2262
    493 y_1_6_4_0                1                     558
    502 y_1_6_5_3                1                    1512
    506 y_1_6_6_1                1                    1450
    562 y_2_2_3_4                1                    1600
    565 y_2_2_4_0                1                      92
    573 y_2_2_5_3                1                    1500
    578 y_2_2_6_1                1                    1344
    751 y_3_4_4_0                1                      96
    760 y_3_4_5_3                1                    1890
    764 y_3_4_6_1                1                    2842
    807 y_4_0_5_3                1                     378
    811 y_4_0_6_1                1                    1218
    908 y_5_3_6_1                1                      80
